certificates/rado_a7_c116_N18.cnf
c Rad2 upper bound instance: x1 + 7*x2 - x3 = 116, interval [1,18]
p cnf 18 86
1 4 17 0
-1 -4 -17 0
1 11 18 0
-1 -11 -18 0
2 5 17 0
-2 -5 -17 0
2 12 18 0
-2 -12 -18 0
3 6 17 0
-3 -6 -17 0
3 13 18 0
-3 -13 -18 0
4 7 17 0
-4 -7 -17 0
4 14 18 0
-4 -14 -18 0
1 5 16 0
-1 -5 -16 0
5 8 17 0
-5 -8 -17 0
5 15 18 0
-5 -15 -18 0
2 6 16 0
-2 -6 -16 0
6 9 17 0
-6 -9 -17 0
6 16 18 0
-6 -16 -18 0
3 7 16 0
-3 -7 -16 0
7 10 17 0
-7 -10 -17 0
7 17 18 0
-7 -17 -18 0
4 8 16 0
-4 -8 -16 0
8 11 17 0
-8 -11 -17 0
8 18 0
-8 -18 0
5 9 16 0
-5 -9 -16 0
9 12 17 0
-9 -12 -17 0
6 10 16 0
-6 -10 -16 0
10 13 17 0
-10 -13 -17 0
7 11 16 0
-7 -11 -16 0
11 14 17 0
-11 -14 -17 0
1 12 15 0
-1 -12 -15 0
8 12 16 0
-8 -12 -16 0
12 15 17 0
-12 -15 -17 0
2 13 15 0
-2 -13 -15 0
9 13 16 0
-9 -13 -16 0
13 16 17 0
-13 -16 -17 0
3 14 15 0
-3 -14 -15 0
10 14 16 0
-10 -14 -16 0
14 17 0
-14 -17 0
4 15 0
-4 -15 0
11 15 16 0
-11 -15 -16 0
15 17 18 0
-15 -17 -18 0
5 15 16 0
-5 -15 -16 0
12 16 0
-12 -16 0
6 15 17 0
-6 -15 -17 0
7 15 18 0
-7 -15 -18 0
14 16 18 0
-14 -16 -18 0
