certificates/rado_a7_c116_N18.drat
-17 -18 0
-18 0
8 0
17 0
-14 0
-5 0
-11 0
4 0
16 0
15 0
1 0
0
